Route #1: 28 23 57 48 54 11 63 7
Route #2: 55 29 13 12 1 33 62
Route #3: 59 40 10 8 52 24 19 18
Route #4: 21 25 44 56 53
Route #5: 41 2 38 42 61 58 20 32
Route #6: 37 30 60 50 16 45 5
Route #7: 15 27 14 3 36 35 4 49
Route #8: 43 22 9 34 47 51
Route #9: 39 46 64 6 26 31 17
Cost 1177
Time 0.083047
Tempo = 0.09226220002165064